5 5
4 48 2 8 1 13 0 48 3 3
0 65 4 73 1 31 3 26 2 81
4 56 3 34 0 9 1 62 2 13
2 69 0 41 4 77 1 1 3 89
3 47 2 4 1 63 4 52 0 10
-1
0 1 3 4 5
0 1 2 3 5
0 2 4 5
0 2 3 4 5
0 1 3 4 5
-2
64 106 183 124
82 158 249 381
104 247 270
135 269 241 297
57 115 176 228

344 10
5 16 3 12 24
2 22 7 18 13
15 1 21 9 14
20 11 4 8 19
0 10 6 17 23
